(declare-fun temp270_1 () (_ BitVec 64))
(declare-fun temp270_2 () (_ BitVec 64))
(declare-fun var87778 () (_ BitVec 64))
(declare-fun k!0 () Bool)
(declare-fun ARGNAME_input_NAMEEND_DIM () (_ BitVec 64))
(declare-fun temp270_3 () (_ BitVec 64))
(declare-fun var3216467 () (_ BitVec 64))
(declare-fun temp270_4 () (_ BitVec 64))
(declare-fun temp270_5 () (_ BitVec 64))
(declare-fun var3814205 () (_ BitVec 64))
(declare-fun temp270_6 () (_ BitVec 64))
(declare-fun var3879741 () (_ BitVec 64))
(declare-fun temp270_7 () (_ BitVec 64))
(declare-fun ARGNAME_keepdim_NAMEEND () (_ BitVec 64))
(declare-fun temp270_8 () (_ BitVec 64))
(declare-fun var4141885 () (_ BitVec 64))
(declare-fun temp270_9 () (_ BitVec 64))
(declare-fun var4207421 () (_ BitVec 64))
(declare-fun temp270_10 () (_ BitVec 64))
(declare-fun var4338493 () (_ BitVec 64))
(declare-fun temp270_12 () (_ BitVec 64))
(declare-fun temp270_11 () (_ BitVec 64))
(declare-fun temp270_13 () (_ BitVec 64))
(declare-fun var4404029 () (_ BitVec 64))
(assert (= temp270_1 #x0000000000000002))
(assert (= var87778
   (ite (= ARGNAME_input_NAMEEND_DIM temp270_1)
        #x0000000000000001
        #x0000000000000000)))
(assert (= temp270_2 #x0000000000000001))
(assert (= var87778 temp270_2))
(assert (= temp270_3 #x0000000000000002))
(assert (= var3216467
   (ite (bvslt ARGNAME_input_NAMEEND_DIM temp270_3)
        #x0000000000000001
        #x0000000000000000)))
(assert (= temp270_4 #x0000000000000000))
(assert (= var3216467 temp270_4))
(assert (= temp270_5 #x0000000000000000))
(assert (= var3814205 temp270_5))
(assert (= temp270_6 #x0000000000000001))
(assert (= var3879741 temp270_6))
(assert (= temp270_7 #x0000000000000000))
(assert (= ARGNAME_keepdim_NAMEEND temp270_7))
(assert (= temp270_8 #x0000000000000000))
(assert (= var4141885 temp270_8))
(assert (= temp270_9 #x0000000000000001))
(assert (= var4207421 temp270_9))
(assert (= temp270_10 #x0000000000000000))
(assert (= var4338493 temp270_10))
(assert (= temp270_12 #x0000000000000001))
(assert (= temp270_11 temp270_12))
(assert (= temp270_13 #x0000000000000001))
(assert (= var4404029 temp270_13))
(model-add temp270_1 () (_ BitVec 64) #x0000000000000002)
(model-add temp270_2 () (_ BitVec 64) #x0000000000000001)
(model-add var87778 () (_ BitVec 64) #x0000000000000001)
(model-del k!0)
(model-add ARGNAME_input_NAMEEND_DIM
           ()
           (_ BitVec 64)
           (ite k!0 #x0000000000000002 (bvnot #x0000000000000002)))





